&input
	fildyn='sro.dynG',
	asr='zero-dim',
/
