&CONTROL
  calculation = 'scf'
  etot_conv_thr =   2.0000000000d-05
  forc_conv_thr =   1.0000000000d-04
  outdir = './out/'
  prefix = 'sro'
  pseudo_dir = "/home/bond/Software/qe-6.4.1/pseudo"
/
&SYSTEM
  degauss =   1.2049585400d-02
  ecutrho =   3.2000000000d+02
  ecutwfc =   4.0000000000d+01
  ibrav = 0
  nat = 2
  ntyp = 2
  occupations = 'smearing'
  smearing = 'cold'
/
&ELECTRONS
  conv_thr =   1.0000000000d-4
  electron_maxstep = 50
  mixing_beta =   0.7
  startingpot      = "atomic"
  startingwfc      = "atomic+random"

/

ATOMIC_SPECIES
O      15.9994 O.pz-rrkjus.UPF
Sr     87.62 Sr.pbe-spn-kjpaw_psl.1.0.0.UPF

ATOMIC_POSITIONS crystal
Sr          -0.4200040000       0.0985886667       0.0000000000 
O           -0.5894033333       0.0925646667       0.0000000000 
K_POINTS {gamma}
CELL_PARAMETERS angstrom
     15.0000000000       0.0000000000       0.0000000000
      0.0000000000      15.0000000000       0.0000000000
      0.0000000000       0.0000000000      15.0000000000